50, 701
20, 21
18, 38
22, 26
50, 47
49, 16
25, 7
19, 37
23, 49
32, 7
50, 18
49, 5
35, 1
23, 50
6, 6
5, 42
6, 4
40, 41
46, 30
16, 17
29, 50
11, 9
17, 17
38, 48
20, 50
37, 48
46, 30
40, 22
39, 49
20, 45
42, 45
45, 49
40, 21
10, 23
31, 41
23, 38
41, 33
31, 46
1, 34
4, 40
45, 40
22, 1
7, 33
47, 14
41, 23
12, 7
31, 2
50, 33
22, 13
24, 19
47, 18
